qbf_easy_train/easy_1690_SAT.qdimacs
p cnf 19 40
a 9 7 0
e 1 2 3 4 5 6 8 10 11 12 13 14 15 16 17 18 19 0
-3 -1 0
-3 2 0
1 -2 3 0
-6 4 0
-6 -5 0
-4 5 6 0
-7 -3 0
-7 -6 0
3 6 7 0
9 -8 0
9 5 0
8 -5 -9 0
-11 -9 0
-11 -10 0
9 10 11 0
13 12 0
13 2 0
-12 -2 -13 0
1 -14 -15 0
-1 14 -15 0
1 14 15 0
-1 -14 15 0
16 2 0
16 -15 0
-2 15 -16 0
13 16 -17 0
-13 -16 -17 0
13 -16 17 0
-13 16 17 0
-18 -11 0
-18 -17 0
11 17 18 0
19 7 0
19 18 0
-7 -18 -19 0
3 8 1 -19 4 0
17 -6 -2 -10 11 0
-1 -18 -5 12 17 -19 4 0
-2 17 5 -7 -6 8 0
19 0
