sat_easy_train/easy_1690_SAT.dimacs
p cnf 149 513
-5 -6 -7 0
5 6 -7 0
-5 6 7 0
5 -6 7 0
-8 -4 0
-8 7 0
4 -7 8 0
3 8 -9 0
-3 -8 -9 0
3 -8 9 0
-3 8 9 0
10 2 0
10 9 0
-2 -9 -10 0
-11 1 0
-11 10 0
-1 -10 11 0
14 12 0
14 -13 0
-12 13 -14 0
-3 6 -16 0
3 -6 -16 0
-3 -6 16 0
3 6 16 0
17 -15 0
17 -16 0
15 16 -17 0
18 -14 0
18 -17 0
14 17 -18 0
19 -18 0
19 5 0
18 -5 -19 0
-14 4 -20 0
14 -4 -20 0
-14 -4 20 0
14 4 20 0
22 21 0
22 14 0
-21 -14 -22 0
-20 -22 -23 0
20 22 -23 0
-20 22 23 0
20 -22 23 0
-25 15 0
-25 -24 0
-15 24 25 0
23 -25 -26 0
-23 25 -26 0
23 25 26 0
-23 -25 26 0
28 27 0
28 27 0
-27 -28 0
-29 -28 0
-29 -14 0
28 14 29 0
29 25 -30 0
-29 -25 -30 0
29 -25 30 0
-29 25 30 0
-26 30 -31 0
26 -30 -31 0
-26 -30 31 0
26 30 31 0
-7 -16 -33 0
7 16 -33 0
-7 16 33 0
7 -16 33 0
14 16 -34 0
-14 -16 -34 0
14 -16 34 0
-14 16 34 0
35 -33 0
35 -34 0
33 34 -35 0
32 35 -36 0
-32 -35 -36 0
32 -35 36 0
-32 35 36 0
37 -31 0
37 -36 0
31 36 -37 0
38 19 0
38 37 0
-19 -37 -38 0
39 -11 0
39 -38 0
11 38 -39 0
40 34 0
40 9 0
-34 -9 -40 0
-41 27 0
-41 -15 0
-27 15 41 0
-40 41 -42 0
40 -41 -42 0
-40 -41 42 0
40 41 42 0
-43 -6 0
-43 -42 0
6 42 43 0
45 44 0
45 14 0
-44 -14 -45 0
35 45 -46 0
-35 -45 -46 0
35 -45 46 0
-35 45 46 0
-47 41 0
-47 -8 0
-41 8 47 0
-48 -46 0
-48 -47 0
46 47 48 0
43 48 -49 0
-43 -48 -49 0
43 -48 49 0
-43 48 49 0
-50 6 0
-50 -41 0
-6 41 50 0
50 21 -51 0
-50 -21 -51 0
50 -21 51 0
-50 21 51 0
53 -7 0
53 27 0
7 -27 -53 0
54 -53 0
54 35 0
53 -35 -54 0
55 -52 0
55 -54 0
52 54 -55 0
55 16 -56 0
-55 -16 -56 0
55 -16 56 0
-55 16 56 0
-57 56 0
-57 -42 0
-56 42 57 0
-51 57 -58 0
51 -57 -58 0
-51 -57 58 0
51 57 58 0
49 -58 -59 0
-49 58 -59 0
49 58 59 0
-49 -58 59 0
60 -24 0
60 -44 0
24 44 -60 0
61 -20 0
61 -60 0
20 60 -61 0
62 -44 0
62 61 0
44 -61 -62 0
-63 59 0
-63 -62 0
-59 62 63 0
64 34 0
64 14 0
-34 -14 -64 0
64 -33 -65 0
-64 33 -65 0
64 33 65 0
-64 -33 65 0
-66 -9 0
-66 16 0
9 -16 66 0
-67 65 0
-67 66 0
-65 -66 67 0
-68 -63 0
-68 -67 0
63 67 68 0
39 -68 -69 0
-39 68 -69 0
39 68 69 0
-39 -68 69 0
-70 -1 0
-70 -21 0
1 21 70 0
-71 1 0
-71 4 0
-1 -4 71 0
72 -12 0
72 71 0
12 -71 -72 0
-73 -25 0
-73 32 0
25 -32 73 0
-74 73 0
-74 20 0
-73 -20 74 0
74 40 -75 0
-74 -40 -75 0
74 -40 75 0
-74 40 75 0
72 75 -76 0
-72 -75 -76 0
72 -75 76 0
-72 75 76 0
-70 -76 -77 0
70 76 -77 0
-70 76 77 0
70 -76 77 0
-78 -53 0
-78 30 0
53 -30 78 0
-79 41 0
-79 -34 0
-41 34 79 0
23 79 -80 0
-23 -79 -80 0
23 -79 80 0
-23 79 80 0
-81 -78 0
-81 80 0
78 -80 81 0
47 -73 -82 0
-47 73 -82 0
47 73 82 0
-47 -73 82 0
-83 -76 0
-83 75 0
76 -75 83 0
84 22 0
84 -13 0
-22 13 -84 0
-83 84 -85 0
83 -84 -85 0
-83 -84 85 0
83 84 85 0
-82 85 -86 0
82 -85 -86 0
-82 -85 86 0
82 85 86 0
-87 28 0
-87 86 0
-28 -86 87 0
-88 81 0
-88 -87 0
-81 87 88 0
89 77 0
89 -88 0
-77 88 -89 0
22 8 -90 0
-22 -8 -90 0
22 -8 90 0
-22 8 90 0
-91 44 0
-91 20 0
-44 -20 91 0
92 90 0
92 -91 0
-90 91 -92 0
9 -13 -93 0
-9 13 -93 0
9 13 93 0
-9 -13 93 0
-94 -28 0
-94 93 0
28 -93 94 0
95 13 0
95 15 0
-13 -15 -95 0
96 94 0
96 95 0
-94 -95 -96 0
-13 -7 -97 0
13 7 -97 0
-13 7 97 0
13 -7 97 0
98 96 0
98 97 0
-96 -97 -98 0
99 -92 0
99 -98 0
92 98 -99 0
-2 71 -100 0
2 -71 -100 0
-2 -71 100 0
2 71 100 0
100 3 -101 0
-100 -3 -101 0
100 -3 101 0
-100 3 101 0
102 14 0
102 -12 0
-14 12 -102 0
-9 -102 -103 0
9 102 -103 0
-9 102 103 0
9 -102 103 0
104 41 0
104 103 0
-41 -103 -104 0
41 27 -105 0
-41 -27 -105 0
41 -27 105 0
-41 27 105 0
104 -105 -106 0
-104 105 -106 0
104 105 106 0
-104 -105 106 0
-107 -101 0
-107 106 0
101 -106 107 0
108 -99 0
108 -107 0
99 107 -108 0
109 46 0
109 55 0
-46 -55 -109 0
-14 45 -110 0
14 -45 -110 0
-14 -45 110 0
14 45 110 0
111 -109 0
111 -110 0
109 110 -111 0
112 -108 0
112 -111 0
108 111 -112 0
113 89 0
113 112 0
-89 -112 -113 0
114 13 0
114 -12 0
-13 12 -114 0
-115 -35 0
-115 -21 0
35 21 115 0
-116 -114 0
-116 115 0
114 -115 116 0
113 -116 -117 0
-113 116 -117 0
113 116 117 0
-113 -116 117 0
118 4 0
118 -23 0
-4 23 -118 0
119 -40 0
119 16 0
40 -16 -119 0
84 -119 -120 0
-84 119 -120 0
84 119 120 0
-84 -119 120 0
-121 118 0
-121 -120 0
-118 120 121 0
-122 -117 0
-122 -121 0
117 121 122 0
123 73 0
123 79 0
-73 -79 -123 0
124 -80 0
124 33 0
80 -33 -124 0
-125 -3 0
-125 -46 0
3 46 125 0
124 -125 -126 0
-124 125 -126 0
124 125 126 0
-124 -125 126 0
-127 -22 0
-127 60 0
22 -60 127 0
128 80 0
128 -127 0
-80 127 -128 0
-129 8 0
-129 3 0
-8 -3 129 0
-130 -129 0
-130 -13 0
129 13 130 0
-128 130 -131 0
128 -130 -131 0
-128 -130 131 0
128 130 131 0
126 -131 -132 0
-126 131 -132 0
126 131 132 0
-126 -131 132 0
133 -84 0
133 22 0
84 -22 -133 0
9 -133 -134 0
-9 133 -134 0
9 133 134 0
-9 -133 134 0
-135 -132 0
-135 134 0
132 -134 135 0
136 -123 0
136 135 0
123 -135 -136 0
-137 122 0
-137 136 0
-122 -136 137 0
48 -138 -139 0
-48 138 -139 0
48 138 139 0
-48 -138 139 0
140 -17 0
140 5 0
17 -5 -140 0
-18 3 -141 0
18 -3 -141 0
-18 -3 141 0
18 3 141 0
-140 -141 -142 0
140 141 -142 0
-140 141 142 0
140 -141 142 0
-143 133 0
-143 16 0
-133 -16 143 0
-144 143 0
-144 -42 0
-143 42 144 0
145 -82 0
145 144 0
82 -144 -145 0
146 -142 0
146 -145 0
142 145 -146 0
147 139 0
147 146 0
-139 -146 -147 0
137 147 -148 0
-137 -147 -148 0
137 -147 148 0
-137 147 148 0
149 -69 0
149 -148 0
69 148 -149 0
-122 95 -77 135 0
-145 130 63 0
-57 -62 0
-25 49 -6 -110 0
72 -31 -112 -43 0
145 36 140 0
-8 -131 4 -127 116 -67 0
141 88 -110 -129 0
-133 -86 0
-113 132 0
67 126 21 -61 -125 0
-93 48 0
-136 147 16 -9 0
-37 66 96 84 27 146 0
72 109 0
147 84 -121 -107 -106 0
-35 58 -18 54 -147 0
137 82 0
47 -140 115 -97 5 76 0
-63 148 115 85 122 94 0
-6 -66 -11 0
128 -45 52 -61 0
65 72 112 0
54 143 0
-81 51 -141 0
64 26 25 95 34 129 0
130 -95 0
139 128 0
-116 91 0
8 -57 -26 -136 -101 0
-39 -73 -86 -15 0
-145 -136 -76 -60 -15 0
-91 53 84 139 0
4 21 131 -25 10 84 0
48 -18 125 37 99 0
-94 -135 78 0
-36 -93 63 -104 -56 0
126 97 17 112 -11 0
-56 -65 -138 -52 10 0
-10 3 -130 0
-9 40 111 115 0
-73 -33 0
118 -122 133 -22 0
68 17 -143 -91 -120 54 0
17 81 90 106 130 -5 0
-104 83 125 -34 126 10 0
60 -131 59 75 0
-99 46 0
106 -24 -118 143 0
46 -74 -149 -83 0
46 109 97 79 0
-86 -31 42 58 -75 0
-109 -113 -16 -144 0
-70 126 -91 -115 -18 127 0
135 76 19 0
111 30 -106 0
144 -98 -3 135 0
3 148 -56 -18 82 0
30 79 -148 133 0
112 -7 -38 0
-46 -83 0
-57 -30 -69 -21 -29 -118 0
53 145 0
-145 110 -94 -149 122 143 0
-131 -104 145 0
110 36 0
11 60 -18 -55 0
149 0
